M+/Instances/S3-5-M+/S3-5-5-1-s-M+.txt
     300       5    0.05
       1       2       3       1       2       5       9       4       0       8       1
       3       3       1       3       2      16       6       1       0      13       1
       2       3       1       2       1       6      14      15      14      14       1
       2       3       1       3       2      12      11      12      11       8       1
       1       1       1       3       2       3       3      13      13       9       1
       2       3       3       2       1      16       3      12       2       2       1
       3       2       3       3       3       5       0      12       6      13       1
       3       2       1       1       3       0       6       7       5       0       1
       1       3       1       1       1       4       5       2      12       3       1
       1       1       2       2       2       5       8       2      16      14       1
       1       3       3       2       3       4      16       1       8      15       1
       1       3       1       3       1      11      12      13      10      13       1
       2       2       1       3       2       1      16       6      13       5       1
       2       1       2       3       2       6       1       0       7       1       1
       3       2       1       2       1      13      14       4      12      16       1
       1       1       3       3       3      10       6       3      16       0       1
       1       2       2       3       1      10      13       8       3      15       1
       2       1       2       2       2       8       3      15       3       4       1
       3       3       1       2       2      11      11      10       5       3       1
       3       1       1       3       3       8      10       6      14       1       1
       3       2       1       1       3       2      15       0      10      14       1
       1       1       2       2       1       7      12       7       1       1       1
       3       3       1       1       1      16       0      16       2      11       1
       3       2       3       3       2       2      12       5       8      14       1
       1       3       2       3       1       4       4       5      12       1       1
       2       1       3       2       2       4      13       4       3       2       1
       3       2       3       2       2       8      14      16      16      13       1
       2       2       1       1       1      11       6      13      11      16       1
       1       2       3       1       3      11       1       3      12       8       1
       3       3       3       3       1      14       3      10       5      11       1
       3       2       3       2       3      15       8       7       2      10       1
       3       2       3       3       2       4      11       5      13       3       1
       1       3       3       2       3       7       2       7      12       9       1
       3       1       1       1       2       6      14      14       1       9       1
       3       2       2       3       1      12       9      11      11      15       1
       2       1       1       1       3      11       1      12      15      14       1
       1       3       1       1       2       8      13      16      14      12       1
       1       2       1       3       1      15      16      16       2       2       1
       3       2       1       3       1      14      13       3      16      14       1
       1       1       2       2       2       8       8      11       7      15       1
       3       1       2       2       3      15      16      12       8       1       1
       2       3       3       2       2       2      14       9       0       3       1
       2       1       2       1       1       8       3       2      11      16       1
       1       1       1       3       3       3       1      15       3      12       1
       2       3       1       3       3       2      11      16       1      11       1
       3       1       1       2       1      16       5       9       3      11       1
       3       2       2       3       1      10      16      14       3       7       1
       2       3       1       1       2       4       6       5      15      13       1
       2       2       1       3       2       6       4      12      13       5       1
       2       3       3       2       1       0      10      10       7      15       1
       2       2       3       3       2       1      11      14       1       8       1
       3       1       3       1       2      11       6      14      15       7       1
       3       3       3       1       3       1       0      15       2      14       1
       3       1       3       3       2      15       0       9      11       4       1
       2       2       3       3       1      11       0      16      12       6       1
       2       1       3       1       2       1       0       4       2       6       1
       2       2       3       1       1       7       0      13       9      10       1
       1       1       3       2       2       9       7       4       7      10       1
       3       1       3       1       1       9      16      10      12      11       1
       3       3       3       1       2       2      16      10       6      11       1
       2       1       2       3       3       9       8      11       5       4       1
       2       1       2       3       2       9      14      13      15       7       1
       2       2       2       1       1       1       7       1      11      16       1
       1       2       2       2       1       5      12      12       1       9       1
       3       1       2       1       2      11       8       7      14       1       1
       1       3       2       2       3      12      10      11       2      11       1
       3       3       1       1       3      11       6       3      16      10       1
       2       1       3       3       2       9       2      14       9       5       1
       1       1       2       1       3       7      15      11       9       9       1
       3       3       3       3       3       6       9      16      12       2       1
       3       3       3       2       2      12       2       6       8       4       1
       3       3       3       3       3       2       5       6       1      13       1
       2       1       2       1       1       8      16      15      13      12       1
       1       1       2       1       2       2      14      12      14       0       1
       1       3       2       2       1      13      13       4      16      10       1
       1       2       3       3       1      10       3      13       4       2       1
       2       3       3       1       3      11       0      13       3      14       1
       3       2       1       1       2       2       9      12       8      12       1
       3       1       3       1       1       8      16      10       3      14       1
       3       1       1       2       1      10       5      14      15       6       1
       2       3       3       2       3      11       3      15       0      14       1
       3       1       3       2       3      14      10       1      16       9       1
       2       2       3       2       3      15       4      13      14      12       1
       3       1       3       3       2       7       7      15       2       2       1
       1       3       2       2       2       3       3      16       2      12       1
       3       2       3       3       1       4      13       2       2       9       1
       3       3       1       3       2      14      12       8       2       8       1
       2       3       1       2       3      16      11       4       2       7       1
       3       2       2       2       3      16      12       5       2       4       1
       3       1       2       2       3       9       3       0       8       1       1
       3       2       3       2       2       4       8       0       8       4       1
       1       2       3       3       2      12      12       1      14       1       1
       2       3       1       3       2       6       2       4       9       3       1
       3       2       3       3       3       3      11      15       4      11       1
       2       2       2       1       3       0       3      15       5       1       1
       1       1       1       3       2       4      13      14      10      14       1
       2       1       3       2       3      11       2      12       1       1       1
       3       3       3       1       2      13      14       3      13      10       1
       2       1       3       1       2      12      10      16       2       0       1
       3       2       1       2       3      15      14       4       5       7       1
       1       3       1       2       3      16      15       7       4       5       1
       3       2       3       2       3      12       7      10       3       2       1
       1       1       2       1       1       8      12       3       0       1       1
       2       2       1       3       2      14      11      13       9       2       1
       2       2       2       1       3       6       4       8      16      12       1
       1       3       1       1       3      10      12      16       5      11       1
       1       3       3       1       1       6       3       0       5       3       1
       3       1       3       3       1       4       5       8      13       7       1
       1       1       2       2       1       3       9      12       3       8       1
       1       1       1       2       2      13       0      13       5      14       1
       2       3       1       1       1      13      16      11       7      13       1
       1       1       1       3       2      16       9      13       1       5       1
       1       3       3       2       2       3       5      11      11      13       1
       2       3       2       1       1       1       9      11      10       7       1
       1       1       2       3       3       4       6       3       9       1       1
       1       3       3       3       2       8       8      15      10      15       1
       3       3       3       3       1      13       9       9      11      14       1
       1       1       1       3       3       9       5       2      11      11       1
       1       1       2       1       3      15      11       6       9       0       1
       3       2       3       3       1      10       5      10      11      11       1
       2       1       1       2       1      10       2      14       3      12       1
       3       3       2       2       1      11      13      16       9      14       1
       1       3       2       1       3       3      11       8       1      12       1
       3       1       2       2       1      13      13       9      10      16       1
       2       2       1       2       3       4       4      16       9       7       1
       2       3       3       1       3      13       1      12       3      13       1
       3       1       2       3       2       0      10       6       0       8       1
       1       3       2       1       2       8       4      13      14      13       1
       2       1       1       3       3      13       3      12      13       7       1
       2       2       3       1       2       7       3      10       5      16       1
       1       1       1       1       3      10       1       8      12       7       1
       1       3       3       3       2      14      12      16      15       7       1
       3       1       1       3       2      16      10       5       7       4       1
       1       2       3       1       2      13       1       6      14       8       1
       2       2       3       2       1      15       2      16      10      12       1
       1       1       1       1       3       5       2       1       2       7       1
       1       3       3       3       2       3      12       0      10       3       1
       3       3       3       3       1       2      12       8      12       0       1
       2       2       2       1       2       4      15       7       2       2       1
       3       3       1       2       3       0       0       4       9       7       1
       1       3       1       1       1       2       4      15      13      16       1
       1       1       2       1       1      13       9      12      13       2       1
       2       2       3       1       3       2      12       9      12      10       1
       2       3       3       2       2       6       1      14      13      10       1
       1       3       3       1       2       5       9      11       5       1       1
       2       3       3       3       3       9      12       0      13      15       1
       3       1       1       3       3      16       6       7       3      15       1
       1       2       2       3       2      13      15      16      16      10       1
       1       3       2       3       3       6       5      14       8      11       1
       3       3       1       2       2      11      16       1       3       9       1
       3       3       1       2       2       5       8       0      10       1       1
       1       2       2       3       3       1       1       6       6      14       1
       1       2       1       1       1       4       4      15       7       6       1
       3       1       3       1       2       5       4       5       8       7       1
       3       3       3       1       1       5       0       9       9       5       1
       3       3       2       2       2       1      13      12       4      16       1
       2       3       2       3       1       9      13       8       3      11       1
       3       2       3       1       3      10       1      13      16       9       1
       2       3       2       1       1       4       8       3      12      16       1
       2       3       2       2       3      12      13      10       0       3       1
       3       3       1       2       2      16      12      13      11       6       1
       3       3       3       3       1       2       4       7       7       7       1
       3       2       2       1       2       8       4       7       3       1       1
       2       3       1       3       3       4       5      13      13      12       1
       2       1       3       3       1       4       4       6       0       1       1
       3       1       1       1       1       5      12      10       3       9       1
       1       3       2       1       1       3      13       2      13      12       1
       1       3       1       3       3      15      13       2       7       1       1
       3       1       3       2       2       2      11       0       5       7       1
       3       1       3       1       2      12       6       2       2      12       1
       3       3       2       2       2       4       4       8       4      13       1
       2       2       1       2       2      10       6      11      13       0       1
       3       3       2       2       3       6      10      14      15      14       1
       2       1       1       1       2      10      13      13      14       8       1
       2       1       1       2       2       5       0       5      15      16       1
       2       1       1       1       1      10       9       0      10      13       1
       3       1       2       3       3      12       2      10       6      15       1
       2       2       2       1       1       9      16      16       6       8       1
       1       3       2       1       3       6      14       1      13       6       1
       1       1       2       3       3       8       0      11       4       3       1
       2       2       1       1       2       7       1       4       7      13       1
       3       3       3       2       1       6      14      12       2       2       1
       2       2       2       3       1      10      15      11       0      16       1
       2       3       1       2       1       9      13      13      14       0       1
       3       1       1       3       2       8       5       7       5       6       1
       1       1       2       1       1      10       4      11       7      16       1
       1       2       2       2       1       5      14       5       1      10       1
       1       3       2       2       3       0      16       2      11      15       1
       3       2       1       1       1       1       6       0       6       2       1
       3       3       1       2       1       8      14       3       8       8       1
       1       2       1       1       2       2       9       1      15       9       1
       1       2       2       1       2      14      14       2       0      12       1
       1       3       2       3       3       8      13       6      16       3       1
       2       1       1       2       2       0      16       6       8      13       1
       1       2       3       3       3      10      11       4       7      10       1
       3       2       1       2       1       3      14      16      16      10       1
       2       2       1       1       3       0       5       1       2       5       1
       2       1       1       2       1      13      14      13       9       2       1
       3       1       3       2       2      10       0       7       1       2       1
       3       3       3       3       2      13      11      15      11       1       1
       3       1       2       2       2      12      16       9       2      16       1
       3       3       3       2       3      14       2      16       5      14       1
       3       2       3       2       1       7       7       8       1       4       1
       1       1       3       3       1      15      11      13      10      15       1
       3       2       3       1       3       1      15       1       9       3       1
       2       2       3       1       3       7      16      15      11       9       1
       2       1       1       3       3      14       7      14       4      13       1
       3       1       2       1       1       3      13       5       4       6       1
       2       3       2       1       2       3       6       5       4      15       1
       3       2       1       2       1      14       7      11       5       5       1
       2       2       3       1       1       6      14      13      11      13       1
       2       1       3       3       2       5       3       7      14      10       1
       2       1       1       1       3       0      11      16      16       9       1
       3       2       3       1       1       2       3       1       7       5       1
       2       2       2       3       3      13      13      10      15       2       1
       2       2       2       1       2       2       8       9       5       9       1
       1       2       2       2       2      10       5       2       2       3       1
       2       1       1       3       3      11       3      11       5       9       1
       1       3       3       3       2      11       7      11      11       6       1
       1       2       1       1       3       6      16      12       4       4       1
       3       1       1       2       1       1       8       5      11       0       1
       2       3       1       2       1       4      12       8       1       8       1
       1       3       3       1       1       9       3      10       5       0       1
       2       2       2       2       3      15       3      12      14      13       1
       3       3       2       2       1      12      14       3      11       6       1
       3       1       2       2       3      12       3      16       5      16       1
       1       2       1       3       2       2       9      16       7       9       1
       2       3       3       3       2       3       8       0      15       6       1
       2       2       3       2       3       7       8       7       2       0       1
       3       3       3       3       3       9       8      12       7       0       1
       3       3       1       1       1      15       7       6       1      10       1
       2       1       1       2       1       4       5      16      13      12       1
       3       2       3       2       3       8       8      12       2       8       1
       2       1       2       1       3      11       8      14      15      10       1
       3       3       1       1       1      13       6       6       1       8       1
       2       1       2       3       2      12       2      16      10      16       1
       1       3       1       1       2       0      13       4      12      10       1
       1       1       3       2       1      15       0       4       0       8       1
       1       3       2       2       1       0       5       7       7       5       1
       1       2       2       1       1       5      10      16       1      12       1
       1       3       3       1       3      11      16       9       9       3       1
       1       3       1       2       3       5       3      14      12      10       1
       1       3       3       1       2       4       1       9       4       8       1
       1       2       1       2       1       0       0       7      10      13       1
       2       3       2       3       3       7      11       1      10       7       1
       1       1       3       2       1       8       7      15       8       1       1
       1       3       3       3       2       8       9      16       7       1       1
       1       3       2       3       1       7       1       9      15      16       1
       1       1       1       1       2       0      16       2      10       8       1
       1       1       3       3       3      14      16      13       0      10       1
       2       3       3       2       1       3      14       9       1       9       1
       2       2       2       1       3      15       1       5      13       7       1
       2       1       1       1       3      11      13       9       2       8       1
       2       2       1       1       3       8       3      14       4      13       1
       1       2       3       2       3      15       6       7      16      10       1
       3       3       1       1       1      13       5      13       5       5       1
       3       2       3       1       2       3       7       4       1       2       1
       1       1       3       1       3      12      13      13       6       0       1
       2       2       2       3       3       9       4      15       9       3       1
       3       3       2       2       3      10       6       8      14      13       1
       1       3       2       3       1      10       1      16       4      11       1
       2       1       3       3       3       7      15       5       6       4       1
       2       3       3       2       3      10       0      12      10      11       1
       1       1       1       3       2       9      11       9       5      16       1
       2       2       2       1       2      11       1      11      10      14       1
       3       1       1       1       1      13      14       5      13       7       1
       1       1       1       2       2       7       9      11      15       1       1
       1       3       3       1       1       4       2      14      13       7       1
       1       3       2       2       3      14       6      11       2      15       1
       3       3       1       1       2       7       2       5       8       3       1
       1       3       3       1       2      12       0      14      13      10       1
       1       3       2       2       3       8       2      11      11       6       1
       1       3       2       2       2       4       4      12      14       6       1
       1       3       1       2       1       7      13       2       8      11       1
       2       2       3       1       1       3       0       7      10      16       1
       1       3       3       3       2      13      14       5       6       1       1
       1       1       1       2       2       8       4       5       8       0       1
       2       1       3       3       1       3       2       3       9      15       1
       2       2       1       3       3      14      14       2      10      16       1
       1       2       2       3       1       9       6       5      11      15       1
       3       1       1       1       1       5      10      10      14      10       1
       1       3       1       3       3      16       6       3       0      16       1
       1       3       2       2       3       9      15       3      14      14       1
       2       3       1       1       2      15       3      16      15      15       1
       3       1       3       3       1      15      10      12       1       5       1
       1       2       1       1       3      14       8      10       0      10       1
       2       2       2       2       3       2       4      15       0       3       1
       1       1       2       3       1      11      11       6       3      13       1
       1       1       1       3       3       1      10       2      16      15       1
       2       1       1       2       2       3      15       5       8       1       1
       3       2       1       1       3       9      11      14       3       7       1
       3       2       1       1       2       0       7       9       9      11       1
       1       2       1       1       3       8      12       4       1       8       1
       1       3       2       3       3       0       1      16       7      11       1
       2       1       3       2       1       8       3      15       4       3       1
       2       2       2       3       2      14      13       6       0       4       1
       1       1       2       1       1       3       7       2       8      10       1
       2       1       2       2       1      11       6      12      13      14       1
       3       1       1       1       1       7       2       3       1       3       1
       3       1       3       1       3      14      16       8       0      11       1
     100     118     103     115      79
     198     239     206     225     158
     531     401     372     561     337